(set-info :smt-lib-version 2.6)
(set-logic QF_FP)
(set-info :source |
Generated by: Chenqi Cui
Generated on: 2025-12-11
Generator: AutoSMTGen
Application: Generating SMT constraints with small solution spaces to make them challenging for SMT solvers
Target solver: Z3, CVC5, Bitwuzla
|)
(set-info :license "https://creativecommons.org/licenses/by/4.0/")
(set-info :category "industrial")
(set-info :status sat)
; benchmark generated from python API

(declare-fun x8 () (_ FloatingPoint 11 53))
(declare-fun x7 () (_ FloatingPoint 11 53))
(declare-fun x6 () (_ FloatingPoint 11 53))
(declare-fun x5 () (_ FloatingPoint 11 53))
(declare-fun x4 () (_ FloatingPoint 11 53))
(declare-fun x3 () (_ FloatingPoint 11 53))
(declare-fun x2 () (_ FloatingPoint 11 53))
(declare-fun x1 () (_ FloatingPoint 11 53))
(declare-fun x0 () (_ FloatingPoint 11 53))
(assert
 (let ((?x19 (fp.add roundNearestTiesToEven (fp.mul roundNearestTiesToEven (fp #b1 #b10000000101 #x34959557f1506) x0) (fp.mul roundNearestTiesToEven (fp #b0 #b10000000100 #x16bbb51af33d0) x1))))
 (let ((?x22 (fp.add roundNearestTiesToEven ?x19 (fp.mul roundNearestTiesToEven (fp #b1 #b10000000010 #x85f19ca1a4a74) x2))))
 (let ((?x25 (fp.add roundNearestTiesToEven ?x22 (fp.mul roundNearestTiesToEven (fp #b0 #b10000000100 #x37d08a280d873) x3))))
 (let ((?x28 (fp.add roundNearestTiesToEven ?x25 (fp.mul roundNearestTiesToEven (fp #b0 #b10000000100 #x490d73721b8ce) x4))))
 (let ((?x31 (fp.add roundNearestTiesToEven ?x28 (fp.mul roundNearestTiesToEven (fp #b0 #b10000000101 #x6c3a130934249) x5))))
 (let ((?x34 (fp.add roundNearestTiesToEven ?x31 (fp.mul roundNearestTiesToEven (fp #b0 #b10000000011 #x6dd00cb1d5cf3) x6))))
 (let ((?x37 (fp.add roundNearestTiesToEven ?x34 (fp.mul roundNearestTiesToEven (fp #b1 #b10000000101 #x295ff9bb4fe3b) x7))))
 (let ((?x40 (fp.add roundNearestTiesToEven ?x37 (fp.mul roundNearestTiesToEven (fp #b0 #b10000000011 #x883af2b6e5fa3) x8))))
 (fp.leq ?x40 (fp #b0 #b10000000011 #x972b360a9be7c)))))))))))
(assert
 (let ((?x64 (fp.add roundNearestTiesToEven (fp.mul roundNearestTiesToEven (fp #b1 #b10000000100 #x1aeb44c32a289) x0) (fp.mul roundNearestTiesToEven (fp #b0 #b10000000100 #xe12f0e08b34ce) x1))))
 (let ((?x67 (fp.add roundNearestTiesToEven ?x64 (fp.mul roundNearestTiesToEven (fp #b0 #b10000000100 #x99334af3ca50b) x2))))
 (let ((?x70 (fp.add roundNearestTiesToEven ?x67 (fp.mul roundNearestTiesToEven (fp #b1 #b10000000101 #x7aa06cb364929) x3))))
 (let ((?x73 (fp.add roundNearestTiesToEven ?x70 (fp.mul roundNearestTiesToEven (fp #b1 #b10000000101 #x3b13d949e7265) x4))))
 (let ((?x76 (fp.add roundNearestTiesToEven ?x73 (fp.mul roundNearestTiesToEven (fp #b0 #b10000000100 #x2ab3b132af885) x5))))
 (let ((?x79 (fp.add roundNearestTiesToEven ?x76 (fp.mul roundNearestTiesToEven (fp #b0 #b10000000100 #xf2b7012686c7f) x6))))
 (let ((?x82 (fp.add roundNearestTiesToEven ?x79 (fp.mul roundNearestTiesToEven (fp #b1 #b10000000100 #xcffda8b440e1f) x7))))
 (let ((?x85 (fp.add roundNearestTiesToEven ?x82 (fp.mul roundNearestTiesToEven (fp #b1 #b10000000011 #x3766019861c5c) x8))))
 (fp.leq ?x85 (fp #b0 #b10000000001 #x850cc0b3a4a7a)))))))))))
(assert
 (let ((?x92 (fp.add roundNearestTiesToEven (fp.mul roundNearestTiesToEven (fp #b0 #b10000000101 #x247c53304439e) x0) (fp.mul roundNearestTiesToEven (fp #b1 #b10000000101 #x3f67ba16edae6) x1))))
 (let ((?x95 (fp.add roundNearestTiesToEven ?x92 (fp.mul roundNearestTiesToEven (fp #b1 #b10000000011 #xc0a5ebd28c5cc) x2))))
 (let ((?x98 (fp.add roundNearestTiesToEven ?x95 (fp.mul roundNearestTiesToEven (fp #b1 #b10000000100 #x504ce904c477b) x3))))
 (let ((?x101 (fp.add roundNearestTiesToEven ?x98 (fp.mul roundNearestTiesToEven (fp #b1 #b10000000101 #x176d6a119d7ac) x4))))
 (let ((?x104 (fp.add roundNearestTiesToEven ?x101 (fp.mul roundNearestTiesToEven (fp #b0 #b10000000101 #x6103455c00834) x5))))
 (let ((?x107 (fp.add roundNearestTiesToEven ?x104 (fp.mul roundNearestTiesToEven (fp #b1 #b10000000011 #xfc497127e20f1) x6))))
 (let ((?x110 (fp.add roundNearestTiesToEven ?x107 (fp.mul roundNearestTiesToEven (fp #b1 #b10000000100 #x03be95b3db1da) x7))))
 (let ((?x113 (fp.add roundNearestTiesToEven ?x110 (fp.mul roundNearestTiesToEven (fp #b0 #b10000000101 #x0ba6b867f6c44) x8))))
 (fp.leq ?x113 (fp #b1 #b10000000000 #xde77ac0ccd049)))))))))))
(assert
 (let ((?x120 (fp.add roundNearestTiesToEven (fp.mul roundNearestTiesToEven (fp #b1 #b10000000101 #x75683bd800e43) x0) (fp.mul roundNearestTiesToEven (fp #b0 #b10000000100 #xf81ad6589cf53) x1))))
 (let ((?x123 (fp.add roundNearestTiesToEven ?x120 (fp.mul roundNearestTiesToEven (fp #b0 #b10000000100 #xb410dbda656b4) x2))))
 (let ((?x126 (fp.add roundNearestTiesToEven ?x123 (fp.mul roundNearestTiesToEven (fp #b1 #b10000000010 #x4447022038201) x3))))
 (let ((?x129 (fp.add roundNearestTiesToEven ?x126 (fp.mul roundNearestTiesToEven (fp #b0 #b10000000101 #x116cfd7dcfd45) x4))))
 (let ((?x132 (fp.add roundNearestTiesToEven ?x129 (fp.mul roundNearestTiesToEven (fp #b1 #b10000000101 #x16918946be15b) x5))))
 (let ((?x135 (fp.add roundNearestTiesToEven ?x132 (fp.mul roundNearestTiesToEven (fp #b0 #b10000000101 #xd4c6e5509faf0) x6))))
 (let ((?x138 (fp.add roundNearestTiesToEven ?x135 (fp.mul roundNearestTiesToEven (fp #b0 #b10000000101 #x699b30ac64054) x7))))
 (let ((?x141 (fp.add roundNearestTiesToEven ?x138 (fp.mul roundNearestTiesToEven (fp #b1 #b10000000011 #xc88acbe1fb985) x8))))
 (fp.leq ?x141 (fp #b1 #b10000000010 #x7040121f71162)))))))))))
(assert
 (let ((?x148 (fp.add roundNearestTiesToEven (fp.mul roundNearestTiesToEven (fp #b0 #b10000000101 #x46affdc243a29) x0) (fp.mul roundNearestTiesToEven (fp #b1 #b10000000011 #x0d8bc2bdead2d) x1))))
 (let ((?x151 (fp.add roundNearestTiesToEven ?x148 (fp.mul roundNearestTiesToEven (fp #b0 #b10000000101 #x1ec764f75b397) x2))))
 (let ((?x154 (fp.add roundNearestTiesToEven ?x151 (fp.mul roundNearestTiesToEven (fp #b0 #b10000000011 #x065080b5a4302) x3))))
 (let ((?x157 (fp.add roundNearestTiesToEven ?x154 (fp.mul roundNearestTiesToEven (fp #b1 #b10000000101 #x99e239ed17a2a) x4))))
 (let ((?x160 (fp.add roundNearestTiesToEven ?x157 (fp.mul roundNearestTiesToEven (fp #b0 #b10000000100 #x59b008282fd03) x5))))
 (let ((?x163 (fp.add roundNearestTiesToEven ?x160 (fp.mul roundNearestTiesToEven (fp #b1 #b10000000101 #x857dc67a86320) x6))))
 (let ((?x166 (fp.add roundNearestTiesToEven ?x163 (fp.mul roundNearestTiesToEven (fp #b1 #b10000000101 #x6417e9d468504) x7))))
 (let ((?x169 (fp.add roundNearestTiesToEven ?x166 (fp.mul roundNearestTiesToEven (fp #b1 #b10000000100 #x1621ef805a275) x8))))
 (fp.leq ?x169 (fp #b1 #b10000000100 #xb64354af827a0)))))))))))
(assert
 (let ((?x176 (fp.add roundNearestTiesToEven (fp.mul roundNearestTiesToEven (fp #b1 #b10000000001 #xe04597c791c43) x0) (fp.mul roundNearestTiesToEven (fp #b1 #b10000000100 #x93844f63ed646) x1))))
 (let ((?x179 (fp.add roundNearestTiesToEven ?x176 (fp.mul roundNearestTiesToEven (fp #b0 #b10000000000 #xce5df4d8f751c) x2))))
 (let ((?x182 (fp.add roundNearestTiesToEven ?x179 (fp.mul roundNearestTiesToEven (fp #b0 #b10000000101 #x1e0978f87136b) x3))))
 (let ((?x185 (fp.add roundNearestTiesToEven ?x182 (fp.mul roundNearestTiesToEven (fp #b0 #b10000000011 #xcfafc7d98eccc) x4))))
 (let ((?x188 (fp.add roundNearestTiesToEven ?x185 (fp.mul roundNearestTiesToEven (fp #b1 #b10000000101 #x85957417e3912) x5))))
 (let ((?x191 (fp.add roundNearestTiesToEven ?x188 (fp.mul roundNearestTiesToEven (fp #b1 #b10000000100 #x0a307f5d7aeb0) x6))))
 (let ((?x194 (fp.add roundNearestTiesToEven ?x191 (fp.mul roundNearestTiesToEven (fp #b0 #b10000000101 #x55fa541f21274) x7))))
 (let ((?x197 (fp.add roundNearestTiesToEven ?x194 (fp.mul roundNearestTiesToEven (fp #b1 #b10000000100 #xe505e5a711fcc) x8))))
 (fp.leq ?x197 (fp #b1 #b10000000100 #x3e93d8666ac4f)))))))))))
(assert
 (let ((?x204 (fp.add roundNearestTiesToEven (fp.mul roundNearestTiesToEven (fp #b1 #b10000000101 #x5b6826417a490) x0) (fp.mul roundNearestTiesToEven (fp #b1 #b10000000011 #x6953b22dfe347) x1))))
 (let ((?x207 (fp.add roundNearestTiesToEven ?x204 (fp.mul roundNearestTiesToEven (fp #b1 #b10000000101 #xc42520cf17f3b) x2))))
 (let ((?x210 (fp.add roundNearestTiesToEven ?x207 (fp.mul roundNearestTiesToEven (fp #b1 #b10000000100 #x801335aa6943d) x3))))
 (let ((?x213 (fp.add roundNearestTiesToEven ?x210 (fp.mul roundNearestTiesToEven (fp #b0 #b10000000011 #xf59cf346b88f9) x4))))
 (let ((?x216 (fp.add roundNearestTiesToEven ?x213 (fp.mul roundNearestTiesToEven (fp #b0 #b10000000001 #xdee4629697fb7) x5))))
 (let ((?x219 (fp.add roundNearestTiesToEven ?x216 (fp.mul roundNearestTiesToEven (fp #b1 #b10000000000 #x407856c89c959) x6))))
 (let ((?x222 (fp.add roundNearestTiesToEven ?x219 (fp.mul roundNearestTiesToEven (fp #b1 #b10000000100 #xe555d3235a614) x7))))
 (let ((?x225 (fp.add roundNearestTiesToEven ?x222 (fp.mul roundNearestTiesToEven (fp #b1 #b10000000100 #x613b9f533754a) x8))))
 (fp.leq ?x225 (fp #b0 #b10000000101 #x2561034c8de27)))))))))))
(assert
 (let ((?x232 (fp.add roundNearestTiesToEven (fp.mul roundNearestTiesToEven (fp #b0 #b10000000101 #x232342a6aed84) x0) (fp.mul roundNearestTiesToEven (fp #b1 #b10000000011 #x46ada36b3cd26) x1))))
 (let ((?x235 (fp.add roundNearestTiesToEven ?x232 (fp.mul roundNearestTiesToEven (fp #b0 #b10000000100 #x889ef5d906882) x2))))
 (let ((?x238 (fp.add roundNearestTiesToEven ?x235 (fp.mul roundNearestTiesToEven (fp #b1 #b10000000010 #xb07a6bb00a9a4) x3))))
 (let ((?x241 (fp.add roundNearestTiesToEven ?x238 (fp.mul roundNearestTiesToEven (fp #b1 #b10000000100 #x8b500bccaae7a) x4))))
 (let ((?x244 (fp.add roundNearestTiesToEven ?x241 (fp.mul roundNearestTiesToEven (fp #b0 #b10000000101 #x0e0cc2157b46e) x5))))
 (let ((?x247 (fp.add roundNearestTiesToEven ?x244 (fp.mul roundNearestTiesToEven (fp #b1 #b10000000011 #xeaa608f73ccab) x6))))
 (let ((?x250 (fp.add roundNearestTiesToEven ?x247 (fp.mul roundNearestTiesToEven (fp #b0 #b10000000101 #x33c5380682f54) x7))))
 (let ((?x253 (fp.add roundNearestTiesToEven ?x250 (fp.mul roundNearestTiesToEven (fp #b1 #b10000000011 #x94bcaced513c7) x8))))
 (fp.leq ?x253 (fp #b0 #b10000000101 #x53e9ff52dc739)))))))))))
(assert
 (let ((?x260 (fp.add roundNearestTiesToEven (fp.mul roundNearestTiesToEven (fp #b0 #b10000000100 #x3ec6fa2fbd95a) x0) (fp.mul roundNearestTiesToEven (fp #b0 #b10000000011 #x932402f826024) x1))))
 (let ((?x263 (fp.add roundNearestTiesToEven ?x260 (fp.mul roundNearestTiesToEven (fp #b1 #b10000000011 #xabe9234262d8f) x2))))
 (let ((?x266 (fp.add roundNearestTiesToEven ?x263 (fp.mul roundNearestTiesToEven (fp #b1 #b10000000101 #xfa041b6b9627b) x3))))
 (let ((?x269 (fp.add roundNearestTiesToEven ?x266 (fp.mul roundNearestTiesToEven (fp #b0 #b10000000101 #x100f9f7e813dd) x4))))
 (let ((?x272 (fp.add roundNearestTiesToEven ?x269 (fp.mul roundNearestTiesToEven (fp #b0 #b10000000101 #x1717fc814c0f2) x5))))
 (let ((?x275 (fp.add roundNearestTiesToEven ?x272 (fp.mul roundNearestTiesToEven (fp #b1 #b10000000011 #x33f7d131457ed) x6))))
 (let ((?x278 (fp.add roundNearestTiesToEven ?x275 (fp.mul roundNearestTiesToEven (fp #b0 #b10000000101 #x110c060d4fee1) x7))))
 (let ((?x281 (fp.add roundNearestTiesToEven ?x278 (fp.mul roundNearestTiesToEven (fp #b0 #b10000000010 #x5a632abea42a8) x8))))
 (fp.leq ?x281 (fp #b0 #b10000000100 #x2d90d34474043)))))))))))
(assert
 (let ((?x288 (fp.add roundNearestTiesToEven (fp.mul roundNearestTiesToEven (fp #b0 #b10000000010 #x8e715cff3705e) x0) (fp.mul roundNearestTiesToEven (fp #b0 #b10000000100 #x60a4ba8776a42) x1))))
 (let ((?x291 (fp.add roundNearestTiesToEven ?x288 (fp.mul roundNearestTiesToEven (fp #b1 #b10000000101 #x4c72e693666c3) x2))))
 (let ((?x294 (fp.add roundNearestTiesToEven ?x291 (fp.mul roundNearestTiesToEven (fp #b0 #b10000000100 #xa8e847a6423f0) x3))))
 (let ((?x297 (fp.add roundNearestTiesToEven ?x294 (fp.mul roundNearestTiesToEven (fp #b0 #b10000000100 #xeb66766551a4f) x4))))
 (let ((?x300 (fp.add roundNearestTiesToEven ?x297 (fp.mul roundNearestTiesToEven (fp #b1 #b10000000100 #xa003753f1359a) x5))))
 (let ((?x303 (fp.add roundNearestTiesToEven ?x300 (fp.mul roundNearestTiesToEven (fp #b1 #b01111111111 #xec3116b08aff4) x6))))
 (let ((?x306 (fp.add roundNearestTiesToEven ?x303 (fp.mul roundNearestTiesToEven (fp #b1 #b10000000101 #x5630d0cf7b6ac) x7))))
 (let ((?x309 (fp.add roundNearestTiesToEven ?x306 (fp.mul roundNearestTiesToEven (fp #b1 #b10000000010 #x80757c46824ed) x8))))
 (fp.leq ?x309 (fp #b1 #b10000000100 #x320415855e257)))))))))))
(assert
 (let ((?x316 (fp.add roundNearestTiesToEven (fp.mul roundNearestTiesToEven (fp #b0 #b10000000100 #x9ddeb9c4ae1ff) x0) (fp.mul roundNearestTiesToEven (fp #b0 #b10000000100 #x05e885570d76d) x1))))
 (let ((?x319 (fp.add roundNearestTiesToEven ?x316 (fp.mul roundNearestTiesToEven (fp #b1 #b10000000011 #x041506f3977c8) x2))))
 (let ((?x322 (fp.add roundNearestTiesToEven ?x319 (fp.mul roundNearestTiesToEven (fp #b0 #b10000000011 #x9c3b51376f0f5) x3))))
 (let ((?x325 (fp.add roundNearestTiesToEven ?x322 (fp.mul roundNearestTiesToEven (fp #b1 #b10000000100 #x536e23ec6fbee) x4))))
 (let ((?x328 (fp.add roundNearestTiesToEven ?x325 (fp.mul roundNearestTiesToEven (fp #b0 #b10000000010 #xe04761e0fd305) x5))))
 (let ((?x331 (fp.add roundNearestTiesToEven ?x328 (fp.mul roundNearestTiesToEven (fp #b0 #b01111111111 #x7187bbe60c114) x6))))
 (let ((?x334 (fp.add roundNearestTiesToEven ?x331 (fp.mul roundNearestTiesToEven (fp #b1 #b10000000101 #x2d76d2cbe384f) x7))))
 (let ((?x337 (fp.add roundNearestTiesToEven ?x334 (fp.mul roundNearestTiesToEven (fp #b0 #b10000000101 #xa6badadac46ca) x8))))
 (fp.leq ?x337 (fp #b0 #b10000000101 #x49b8bbe8d382f)))))))))))
(assert
 (let ((?x344 (fp.add roundNearestTiesToEven (fp.mul roundNearestTiesToEven (fp #b0 #b10000000100 #x1afb46a2352de) x0) (fp.mul roundNearestTiesToEven (fp #b1 #b10000000101 #x0f01154d2753e) x1))))
(let ((?x347 (fp.add roundNearestTiesToEven ?x344 (fp.mul roundNearestTiesToEven (fp #b0 #b10000000100 #x032ff22dfd863) x2))))
(let ((?x350 (fp.add roundNearestTiesToEven ?x347 (fp.mul roundNearestTiesToEven (fp #b1 #b10000000101 #x5b2ff58296783) x3))))
(let ((?x353 (fp.add roundNearestTiesToEven ?x350 (fp.mul roundNearestTiesToEven (fp #b0 #b10000000101 #x741d3e59e8368) x4))))
(let ((?x356 (fp.add roundNearestTiesToEven ?x353 (fp.mul roundNearestTiesToEven (fp #b0 #b10000000100 #xd78e05ecaac03) x5))))
(let ((?x359 (fp.add roundNearestTiesToEven ?x356 (fp.mul roundNearestTiesToEven (fp #b0 #b10000000101 #xaf734d08f7d2e) x6))))
(let ((?x362 (fp.add roundNearestTiesToEven ?x359 (fp.mul roundNearestTiesToEven (fp #b1 #b10000000100 #x78f7c5776973e) x7))))
(let ((?x365 (fp.add roundNearestTiesToEven ?x362 (fp.mul roundNearestTiesToEven (fp #b0 #b10000000101 #x029badbea44f3) x8))))
(fp.leq ?x365 (fp #b1 #b10000000011 #x06f4fe4dde431)))))))))))
(check-sat)
(exit)
